p edge 50 122 20
v 1 5
v 5 10 11 29 43 47
v 3 4 12 45
v 4 14 16 17 32
v 1 25
v 5 1 21 24 36 42
v 2 18 31
v 1 37
v 3 15 27 35
v 2 46 49
v 2 28 34
v 2 22 40
v 2 8 20
v 1 3
v 2 13 48
v 5 6 9 23 30 50
v 4 2 7 26 44
v 2 19 39
v 1 33
v 2 38 41
e 1 6
e 1 34
e 1 41
e 1 46
e 1 50
e 2 15
e 2 32
e 2 44
e 3 13
e 3 43
e 3 45
e 4 15
e 4 26
e 4 39
e 4 45
e 4 50
e 5 12
e 5 14
e 5 17
e 5 33
e 6 10
e 6 14
e 6 24
e 6 25
e 6 33
e 6 42
e 7 9
e 7 12
e 7 20
e 7 28
e 7 37
e 7 44
e 8 17
e 8 45
e 9 10
e 9 13
e 9 17
e 9 26
e 9 36
e 9 40
e 9 42
e 9 45
e 9 48
e 10 18
e 10 29
e 10 50
e 11 22
e 11 24
e 11 32
e 11 49
e 12 13
e 12 14
e 12 19
e 12 32
e 12 37
e 12 38
e 13 29
e 13 31
e 13 37
e 13 47
e 14 32
e 14 44
e 14 48
e 15 39
e 16 19
e 16 20
e 16 22
e 16 37
e 16 40
e 17 19
e 17 24
e 17 28
e 17 32
e 17 35
e 17 39
e 17 46
e 17 48
e 20 21
e 20 25
e 20 29
e 20 30
e 20 37
e 20 50
e 21 25
e 21 33
e 21 37
e 23 28
e 23 33
e 24 30
e 24 34
e 25 37
e 25 49
e 26 31
e 26 41
e 26 46
e 26 47
e 27 30
e 27 35
e 27 38
e 28 40
e 29 30
e 29 34
e 29 37
e 29 43
e 29 46
e 30 35
e 30 39
e 30 48
e 31 39
e 31 48
e 32 44
e 33 38
e 33 41
e 33 50
e 36 45
e 38 41
e 38 45
e 39 45
e 39 48
e 40 45
e 43 50
e 47 49
